0 26 58 38 65 66 11 53 35 19 54 13 27 52 34 46 67 0
0 12 72 39 9 25 55 18 24 49 3 44 32 40 17 0
0 75 68 30 74 21 47 36 69 71 60 70 20 37 15 57 29 45 4 0
0 6 33 73 62 28 22 64 42 43 41 56 23 63 16 51 0
